NAME : portcgen-19-30
COMMENT : portcgen N=19, seed=30
TYPE : TSP
DIMENSION : 19
EDGE_WEIGHT_TYPE : EUC_2D
NODE_COORD_SECTION
1 273732 286598
2 -434088 -410753
3 105354 -369776
4 -68497 -508817
5 484268 417378
6 330092 -135099
7 -214281 158810
8 202130 36691
9 96216 -37851
10 -1172 -383790
11 -15042 110763
12 -268418 665815
13 -82879 -159453
14 225095 174430
15 -46466 -258942
16 -367741 248981
17 -112750 -109940
18 -22568 279138
19 -113998 -27165
